AdminEmail    jaradtke@amazon.com    -
AvailabilityZones    us-west-2a,us-west-2b,us-west-2c    -
BastionInstanceType    t2.nano    -
CloudFrontAcmCertificate    arn:aws:acm:us-west-2:427832613400:certificate/667c1ba5-18d1-473c-ac23-bb1618ff8356    -
DataSubnet0Cidr    10.202.100.0/24    -
DataSubnet1Cidr    10.202.101.0/24    -
DataSubnet2Cidr    10.202.102.0/24    -
DataSubnet3Cidr    10.202.103.0/24    -
DataSubnet4Cidr    10.202.104.0/24    -
DataSubnet5Cidr    10.202.105.0/24    -
DatabaseCmk    -    -
DatabaseEncrpytedBoolean    true    -
DatabaseInstanceType    db.t2.medium    -
DatabaseMasterPassword    w0rdPressDBpAss -
DatabaseMasterUsername    dbmaster    -
DatabaseName    wordpressdb    -
EC2KeyName    cxa-2019-q1    -
EfsAlarmsInstanceType    t2.nano    -
EfsCmk    -    -
EfsCreateAlarms    true    -
EfsCriticalThreshold    60    -
EfsEncrpytedBoolean    true    -
EfsGrowth    0    -
EfsGrowthInstanceType    r4.large    -
EfsPerformanceMode    generalPurpose    -
EfsWarningThreshold    180    -
ElastiCacheNodeType    cache.t2.medium    -
NumberOfAZs    3    -
PHPIniOverride    https://s3.amazonaws.com/aws-refarch/wordpress/latest/bits/20-aws.ini    -
PHPVersion    7.0    -
PublicAlbAcmCertificate    arn:aws:acm:us-west-2:427832613400:certificate/667c1ba5-18d1-473c-ac23-bb1618ff8356    -
PublicSubnet0Cidr    10.202.200.0/24    -
PublicSubnet1Cidr    10.202.201.0/24    -
PublicSubnet2Cidr    10.202.202.0/24    -
PublicSubnet3Cidr    10.202.203.0/24    -
PublicSubnet4Cidr    10.202.204.0/24    -
PublicSubnet5Cidr    10.202.205.0/24    -
SshAccessCidr    0.0.0.0/0    -
UseCloudFrontBoolean    true    -
UseElastiCacheBoolean    true    -
UseRoute53Boolean    true    -
VpcCidr    10.0.0.0/16    -
VpcTenancy    default    -
WPAdminPassword    w0rdPresspAss -
WPAdminUsername    wordadmin    -
WPDirectory    mywp    -
WPDomainName    cloudxabide.com    -
WPLocale    en_GB    -
WPTitle    This is a new WordPress site on Amazon Web Services    -
WPVersion    latest    -
WebAsgMax    4    -
WebAsgMin    2    -
WebInstanceType    t2.large    -
WebSubnet0Cidr    10.202.0.0/22    -
WebSubnet1Cidr    10.202.4.0/22    -
WebSubnet2Cidr    10.202.8.0/22    -
WebSubnet3Cidr    10.202.12.0/22    -
WebSubnet4Cidr    10.202.16.0/22    -
WebSubnet5Cidr    10.202.20.0/22    -
